Minimize
 obj: 0 X_0_1
Subject To
 out_0:
  + 1 X_0_1 + 1 X_0_2 + 1 X_0_3 + 1 X_0_4
  = 1
 in_0:
  + 1 X_1_0 + 1 X_2_0 + 1 X_3_0 + 1 X_4_0
  = 1
 out_1:
  + 1 X_1_0 + 1 X_1_2 + 1 X_1_3 + 1 X_1_4
  = 1
 in_1:
  + 1 X_0_1 + 1 X_2_1 + 1 X_3_1 + 1 X_4_1
  = 1
 out_2:
  + 1 X_2_0 + 1 X_2_1 + 1 X_2_3 + 1 X_2_4
  = 1
 in_2:
  + 1 X_0_2 + 1 X_1_2 + 1 X_3_2 + 1 X_4_2
  = 1
 out_3:
  + 1 X_3_0 + 1 X_3_1 + 1 X_3_2 + 1 X_3_4
  = 1
 in_3:
  + 1 X_0_3 + 1 X_1_3 + 1 X_2_3 + 1 X_4_3
  = 1
 out_4:
  + 1 X_4_0 + 1 X_4_1 + 1 X_4_2 + 1 X_4_3
  = 1
 in_4:
  + 1 X_0_4 + 1 X_1_4 + 1 X_2_4 + 1 X_3_4
  = 1
 mtz_1_2:
  + 1 U1 - 1 U2 + 4 X_1_2
  <= 3
 mtz_1_3:
  + 1 U1 - 1 U3 + 4 X_1_3
  <= 3
 mtz_1_4:
  + 1 U1 - 1 U4 + 4 X_1_4
  <= 3
 mtz_2_1:
  + 1 U2 - 1 U1 + 4 X_2_1
  <= 3
 mtz_2_3:
  + 1 U2 - 1 U3 + 4 X_2_3
  <= 3
 mtz_2_4:
  + 1 U2 - 1 U4 + 4 X_2_4
  <= 3
 mtz_3_1:
  + 1 U3 - 1 U1 + 4 X_3_1
  <= 3
 mtz_3_2:
  + 1 U3 - 1 U2 + 4 X_3_2
  <= 3
 mtz_3_4:
  + 1 U3 - 1 U4 + 4 X_3_4
  <= 3
 mtz_4_1:
  + 1 U4 - 1 U1 + 4 X_4_1
  <= 3
 mtz_4_2:
  + 1 U4 - 1 U2 + 4 X_4_2
  <= 3
 mtz_4_3:
  + 1 U4 - 1 U3 + 4 X_4_3
  <= 3
 obj1:
  + 397 X_0_1 + 800 X_0_2 + 110 X_0_3 + 613 X_0_4 + 397 X_1_0 + 779 X_1_2 + 433 X_1_3 + 510 X_1_4
  + 800 X_2_0 + 779 X_2_1 + 706 X_2_3 + 276 X_2_4 + 110 X_3_0 + 433 X_3_1 + 706 X_3_2 + 542 X_3_4
  + 613 X_4_0 + 510 X_4_1 + 276 X_4_2 + 542 X_4_3
  <= 1
 obj2:
  + 321 X_0_1 + 608 X_0_2 + 166 X_0_3 + 368 X_0_4 + 321 X_1_0 + 303 X_1_2 + 359 X_1_3 + 513 X_1_4
  + 608 X_2_0 + 303 X_2_1 + 591 X_2_3 + 805 X_2_4 + 166 X_3_0 + 359 X_3_1 + 591 X_3_2 + 534 X_3_4
  + 368 X_4_0 + 513 X_4_1 + 805 X_4_2 + 534 X_4_3
  <= 2
 obj3:
  + 936 X_0_1 + 307 X_0_2 + 311 X_0_3 + 725 X_0_4 + 936 X_1_0 + 630 X_1_2 + 633 X_1_3 + 273 X_1_4
  + 307 X_2_0 + 630 X_2_1 + 33 X_2_3 + 420 X_2_4 + 311 X_3_0 + 633 X_3_1 + 33 X_3_2 + 413 X_3_4
  + 725 X_4_0 + 273 X_4_1 + 420 X_4_2 + 413 X_4_3
  <= 3
 obj4:
  + 457 X_0_1 + 624 X_0_2 + 418 X_0_3 + 160 X_0_4 + 457 X_1_0 + 210 X_1_2 + 703 X_1_3 + 445 X_1_4
  + 624 X_2_0 + 210 X_2_1 + 910 X_2_3 + 566 X_2_4 + 418 X_3_0 + 703 X_3_1 + 910 X_3_2 + 578 X_3_4
  + 160 X_4_0 + 445 X_4_1 + 566 X_4_2 + 578 X_4_3
  <= 4
 obj5:
  + 566 X_0_1 + 633 X_0_2 + 743 X_0_3 + 664 X_0_4 + 566 X_1_0 + 67 X_1_2 + 643 X_1_3 + 657 X_1_4
  + 633 X_2_0 + 67 X_2_1 + 664 X_2_3 + 688 X_2_4 + 743 X_3_0 + 643 X_3_1 + 664 X_3_2 + 115 X_3_4
  + 664 X_4_0 + 657 X_4_1 + 688 X_4_2 + 115 X_4_3
  <= 5
 obj6:
  + 446 X_0_1 + 755 X_0_2 + 770 X_0_3 + 372 X_0_4 + 446 X_1_0 + 331 X_1_2 + 481 X_1_3 + 173 X_1_4
  + 755 X_2_0 + 331 X_2_1 + 610 X_2_3 + 492 X_2_4 + 770 X_3_0 + 481 X_3_1 + 610 X_3_2 + 416 X_3_4
  + 372 X_4_0 + 173 X_4_1 + 492 X_4_2 + 416 X_4_3
  <= 6
 obj7:
  + 319 X_0_1 + 714 X_0_2 + 791 X_0_3 + 730 X_0_4 + 319 X_1_0 + 531 X_1_2 + 684 X_1_3 + 582 X_1_4
  + 714 X_2_0 + 531 X_2_1 + 214 X_2_3 + 87 X_2_4 + 791 X_3_0 + 684 X_3_1 + 214 X_3_2 + 127 X_3_4
  + 730 X_4_0 + 582 X_4_1 + 87 X_4_2 + 127 X_4_3
  <= 7
Bounds
 1 <= U1 <= 4
 1 <= U2 <= 4
 1 <= U3 <= 4
 1 <= U4 <= 4
Binary
 X_0_1
 X_0_2
 X_0_3
 X_0_4
 X_1_0
 X_1_2
 X_1_3
 X_1_4
 X_2_0
 X_2_1
 X_2_3
 X_2_4
 X_3_0
 X_3_1
 X_3_2
 X_3_4
 X_4_0
 X_4_1
 X_4_2
 X_4_3
End
